NAME : ClusterId_197 
COMMENT : (Gillet and Johnson) 
TYPE : CVRP 
DIMENSION : 26 
EDGE_WEIGHT_TYPE : EUC_2D 
CAPACITY : 80 
NODE_COORD_SECTION 
197 1474 3010 
120 1311 -2168 
136 756 -1333 
144 2006 -1048 
140 1945 -578 
133 1726 -310 
85 546 480 
99 2080 77 
16 272 879 
68 512 830 
35 1750 1230 
70 1293 1718 
39 1284 1852 
27 1635 2239 
22 2399 2115 
36 801 2678 
78 939 2696 
79 2374 2336 
72 160 3469 
38 150 3609 
69 675 3481 
73 1256 3240 
46 2516 3769 
37 63 4931 
9 2208 4379 
50 440 5471 
DEMAND_SECTION 
197 550
120 18
136 35
144 23
140 21
133 14
85 37
99 20
16 21
68 12
35 37
70 18
39 27
27 9
22 34
36 35
78 13
79 25
72 34
38 12
69 16
73 20
46 21
37 11
9 25
50 10
DEPOT_SECTION 
197
 -1
EOF